letting n =  10
letting blocks =  [[1, 3], [1, 5], [2, 2], [2, 6], [2, 7], [2, 10], [3, 4], [3, 6], [3, 7], [4, 1], [5, 2], [5, 9], [5, 10], [6, 6], [6, 10], [7, 2], [7, 10], [8, 1], [8, 2], [8, 8], [9, 1], [9, 4], [9, 8], [10, 1], [10, 2], [10, 5], [10, 6], [10, 10]]
